NAME /Users/henri/Research/solvers/instances/idol-instances/robust/collection/cbp_Subramanyam_et_al_2020/CapBud_N10_9/models/uncertain_technology_matrix/
ROWS
 N  OBJ
 L  capacity
 L  c_740
 L  c_741
 L  c_742
 L  c_743
 L  c_744
 L  c_745
 L  c_746
 L  c_747
 L  c_748
 L  c_749
COLUMNS
    MARKER    'MARKER'                 'INTORG'
    x_0        OBJ        -3.17374
    x_0        c_740      1
    x_0        capacity   0.634747
    x_1        OBJ        -5.98193
    x_1        c_741      1
    x_1        capacity   1.19639
    x_2        OBJ        -4.04122
    x_2        c_742      1
    x_2        capacity   0.808243
    x_3        OBJ        -1.16867
    x_3        c_743      1
    x_3        capacity   0.233734
    x_4        OBJ        -4.12481
    x_4        c_744      1
    x_4        capacity   0.824963
    x_5        OBJ        -8.43658
    x_5        c_745      1
    x_5        capacity   1.68732
    x_6        OBJ        -5.23109
    x_6        c_746      1
    x_6        capacity   1.04622
    x_7        OBJ        -6.08402
    x_7        c_747      1
    x_7        capacity   1.2168
    x_8        OBJ        -3.59874
    x_8        c_748      1
    x_8        capacity   0.719748
    x_9        OBJ        -1.75803
    x_9        c_749      1
    x_9        capacity   0.351606
    y_0        OBJ        -2.53899
    y_0        c_740      1
    y_0        capacity   0.634747
    y_1        OBJ        -4.78554
    y_1        c_741      1
    y_1        capacity   1.19639
    y_2        OBJ        -3.23297
    y_2        c_742      1
    y_2        capacity   0.808243
    y_3        OBJ        -0.934937
    y_3        c_743      1
    y_3        capacity   0.233734
    y_4        OBJ        -3.29985
    y_4        c_744      1
    y_4        capacity   0.824963
    y_5        OBJ        -6.74927
    y_5        c_745      1
    y_5        capacity   1.68732
    y_6        OBJ        -4.18487
    y_6        c_746      1
    y_6        capacity   1.04622
    y_7        OBJ        -4.86721
    y_7        c_747      1
    y_7        capacity   1.2168
    y_8        OBJ        -2.87899
    y_8        c_748      1
    y_8        capacity   0.719748
    y_9        OBJ        -1.40642
    y_9        c_749      1
    y_9        capacity   0.351606
    MARKER    'MARKER'                 'INTEND'
RHS
    RHS       capacity   21.7994
    RHS       c_740      1
    RHS       c_741      1
    RHS       c_742      1
    RHS       c_743      1
    RHS       c_744      1
    RHS       c_745      1
    RHS       c_746      1
    RHS       c_747      1
    RHS       c_748      1
    RHS       c_749      1
BOUNDS
 LI BND       x_0        0
 UI BND       x_0        1
 LI BND       x_1        0
 UI BND       x_1        1
 LI BND       x_2        0
 UI BND       x_2        1
 LI BND       x_3        0
 UI BND       x_3        1
 LI BND       x_4        0
 UI BND       x_4        1
 LI BND       x_5        0
 UI BND       x_5        1
 LI BND       x_6        0
 UI BND       x_6        1
 LI BND       x_7        0
 UI BND       x_7        1
 LI BND       x_8        0
 UI BND       x_8        1
 LI BND       x_9        0
 UI BND       x_9        1
 LI BND       y_0        0
 UI BND       y_0        1
 LI BND       y_1        0
 UI BND       y_1        1
 LI BND       y_2        0
 UI BND       y_2        1
 LI BND       y_3        0
 UI BND       y_3        1
 LI BND       y_4        0
 UI BND       y_4        1
 LI BND       y_5        0
 UI BND       y_5        1
 LI BND       y_6        0
 UI BND       y_6        1
 LI BND       y_7        0
 UI BND       y_7        1
 LI BND       y_8        0
 UI BND       y_8        1
 LI BND       y_9        0
 UI BND       y_9        1
ENDATA
